
Gurobi 11.0.0 (win64) logging started Sat Jun 15 09:49:54 2024

Set parameter LogFile to value "./GurobiLog/stage_1_iter_8.log"
Gurobi Optimizer version 11.0.0 build v11.0.0rc2 (win64 - Windows 10.0 (18363.2))

CPU model: Intel(R) Core(TM) i7-8700 CPU @ 3.20GHz, instruction set [SSE2|AVX|AVX2]
Thread count: 6 physical cores, 12 logical processors, using up to 1 threads

Optimize a model with 1489 rows, 20458 columns and 57062 nonzeros
Coefficient statistics:
  Matrix range     [4e-03, 7e+03]
  Objective range  [1e-01, 2e+05]
  Bounds range     [7e-01, 1e+06]
  RHS range        [1e+00, 4e+04]
LP warm-start: use basis
Iteration    Objective       Primal Inf.    Dual Inf.      Time
       0    3.7623424e+04   4.770482e+04   0.000000e+00      0s
     115    4.3989360e+04   0.000000e+00   0.000000e+00      0s

Solved in 115 iterations and 0.01 seconds (0.01 work units)
Optimal objective  4.398936045e+04

Gurobi 11.0.0 (win64) logging started Sat Jun 15 10:48:25 2024

Set parameter LogFile to value "./GurobiLog/stage_1_iter_8.log"
Gurobi Optimizer version 11.0.0 build v11.0.0rc2 (win64 - Windows 10.0 (18363.2))

CPU model: Intel(R) Core(TM) i7-8700 CPU @ 3.20GHz, instruction set [SSE2|AVX|AVX2]
Thread count: 6 physical cores, 12 logical processors, using up to 1 threads

Optimize a model with 1489 rows, 20458 columns and 57237 nonzeros
Coefficient statistics:
  Matrix range     [1e-02, 7e+03]
  Objective range  [1e-01, 2e+05]
  Bounds range     [1e+01, 5e+05]
  RHS range        [1e+00, 6e+04]
LP warm-start: use basis
Iteration    Objective       Primal Inf.    Dual Inf.      Time
       0    3.4258407e+04   3.305679e+04   0.000000e+00      0s
     297    5.2932680e+04   0.000000e+00   0.000000e+00      0s

Solved in 297 iterations and 0.03 seconds (0.03 work units)
Optimal objective  5.293268037e+04
